Gurobi Optimizer version 9.1.2 build v9.1.2rc0 (linux64)
Thread count: 36 physical cores, 72 logical processors, using up to 32 threads
Optimize a model with 12 rows, 57 columns and 590 nonzeros
Model fingerprint: 0xf32eec78
Model has 47 quadratic constraints
Coefficient statistics:
  Matrix range     [2e-05, 3e+00]
  QMatrix range    [1e+00, 1e+00]
  QLMatrix range   [1e+00, 1e+00]
  Objective range  [8e-03, 7e-01]
  Bounds range     [1e+00, 1e+00]
  RHS range        [1e+00, 1e+00]
Presolve removed 9 rows and 0 columns

Continuous model is non-convex -- solving as a MIP.

Presolve removed 9 rows and 0 columns
Presolve time: 0.00s
Presolved: 189 rows, 57 columns, 443 nonzeros
Presolved model has 47 bilinear constraint(s)
Variable types: 57 continuous, 0 integer (0 binary)

Root relaxation: objective -1.743721e+00, 44 iterations, 0.00 seconds

    Nodes    |    Current Node    |     Objective Bounds      |     Work
 Expl Unexpl |  Obj  Depth IntInf | Incumbent    BestBd   Gap | It/Node Time

     0     0   -1.74372    0   38          -   -1.74372      -     -    0s
H    0     0                       0.6147548   -1.74372   384%     -    0s
     0     0   -1.64739    0    1    0.61475   -1.64739   368%     -    0s
H    0     0                      -1.6450460   -1.64739  0.14%     -    0s
     0     0     cutoff    0        -1.64505   -1.64505  0.00%     -    0s

Cutting planes:
  RLT: 25
  BQP: 3

Explored 1 nodes (76 simplex iterations) in 0.01 seconds
Thread count was 32 (of 72 available processors)

Solution count 2: -1.64505 0.614755 
No other solutions better than -1.64505

Optimal solution found (tolerance 1.00e-04)
Best objective -1.645045978473e+00, best bound -1.645045978473e+00, gap 0.0000%

User-callback calls 78, time in user-callback 0.00 sec
Gurobi Optimizer version 9.1.2 build v9.1.2rc0 (linux64)
Thread count: 36 physical cores, 72 logical processors, using up to 32 threads
Optimize a model with 24 rows, 120 columns and 2480 nonzeros
Model fingerprint: 0xdec1c361
Model has 100 quadratic constraints
Coefficient statistics:
  Matrix range     [8e-06, 4e+00]
  QMatrix range    [1e+00, 1e+00]
  QLMatrix range   [1e+00, 1e+00]
  Objective range  [9e-03, 2e+00]
  Bounds range     [1e+00, 1e+00]
  RHS range        [1e+00, 1e+00]
Presolve removed 17 rows and 0 columns

Continuous model is non-convex -- solving as a MIP.

Presolve removed 17 rows and 0 columns
Presolve time: 0.00s
Presolved: 407 rows, 120 columns, 1232 nonzeros
Presolved model has 100 bilinear constraint(s)
Variable types: 120 continuous, 0 integer (0 binary)

Root relaxation: objective -1.179494e+01, 140 iterations, 0.00 seconds

    Nodes    |    Current Node    |     Objective Bounds      |     Work
 Expl Unexpl |  Obj  Depth IntInf | Incumbent    BestBd   Gap | It/Node Time

     0     0  -11.79494    0  100          -  -11.79494      -     -    0s
H    0     0                       0.7405134  -11.79494  1693%     -    0s
     0     0   -8.57100    0   76    0.74051   -8.57100  1257%     -    0s
H    0     0                      -0.5412797   -8.57100  1483%     -    0s
H    0     0                      -0.5412797   -8.57100  1483%     -    0s
     0     0   -7.80800    0  100   -0.54128   -7.80800  1343%     -    0s
     0     0   -7.55847    0  100   -0.54128   -7.55847  1296%     -    0s
     0     0   -7.14772    0  100   -0.54128   -7.14772  1221%     -    0s
     0     0   -7.07900    0  100   -0.54128   -7.07900  1208%     -    0s
     0     0   -6.98942    0  100   -0.54128   -6.98942  1191%     -    0s
H    0     0                      -0.9163498   -6.98942   663%     -    0s
     0     0   -6.97817    0  100   -0.91635   -6.97817   662%     -    0s
     0     0   -6.95246    0  100   -0.91635   -6.95246   659%     -    0s
     0     0   -6.94221    0  100   -0.91635   -6.94221   658%     -    0s
     0     0   -6.94070    0  100   -0.91635   -6.94070   657%     -    0s
     0     0   -6.94064    0  100   -0.91635   -6.94064   657%     -    0s
H    0     0                      -1.6152807   -6.94064   330%     -    0s
H    0     0                      -2.9513684   -6.94064   135%     -    0s
H    0     0                      -3.0300795   -6.94064   129%     -    0s
H    0     0                      -3.3894276   -6.94064   105%     -    0s
     0     2   -6.94064    0  100   -3.38943   -6.94064   105%     -    0s
*  658   660              25      -5.1910331   -6.18931  19.2%  33.7    0s
* 1161   739              31      -5.2040301   -6.18931  18.9%  28.4    0s
* 1277   822              25      -5.4064518   -6.18931  14.5%  28.3    0s
* 1715   813              22      -5.4067937   -5.83948  8.00%  25.9    0s
* 1716   813              22      -5.4068855   -5.83948  8.00%  25.8    0s
* 1790   813              30      -5.4383516   -5.83948  7.38%  25.3    0s
* 1791   813              30      -5.4383522   -5.83948  7.38%  25.3    0s
* 2005   991              18      -5.4776954   -5.78739  5.65%  24.1    0s
* 2221   991              19      -5.6078248   -5.78739  3.20%  22.9    0s
* 2280   828              21      -5.6396949   -5.76836  2.28%  22.7    0s
* 2677  1103              36      -5.6414542   -5.76836  2.25%  20.2    0s
* 2678  1103              36      -5.6414593   -5.76836  2.25%  20.2    0s
* 2686  1103              39      -5.6437973   -5.76836  2.21%  20.1    0s
* 2693  1103              18      -5.6702690   -5.76836  1.73%  20.1    0s
* 2741  1103              33      -5.6908119   -5.76836  1.36%  20.0    0s
* 2742  1103              33      -5.6908371   -5.76836  1.36%  19.9    0s
* 2883  1103              27      -5.6933439   -5.76836  1.32%  19.4    0s
* 2885  1103              28      -5.6957998   -5.76836  1.27%  19.4    0s
* 2888  1103              30      -5.6958886   -5.76836  1.27%  19.4    0s
* 2889  1103              30      -5.6958922   -5.76836  1.27%  19.4    0s
* 3221  1129              21      -5.7390507   -5.76136  0.39%  18.4    0s
* 3222  1129              21      -5.7390560   -5.76136  0.39%  18.4    0s
* 3290  1129              28      -5.7390970   -5.76043  0.37%  18.2    0s

Cutting planes:
  RLT: 90
  BQP: 14
  PSD: 16

Explored 4685 nodes (63059 simplex iterations) in 0.76 seconds
Thread count was 32 (of 72 available processors)

Solution count 10: -5.7391 -5.73906 -5.73905 ... -5.6438
No other solutions better than -5.7391

Optimal solution found (tolerance 1.00e-04)
Best objective -5.739096984337e+00, best bound -5.739096984337e+00, gap 0.0000%

User-callback calls 9712, time in user-callback 0.00 sec



objective value: -5.739096984336726
objective bound: -5.739096984336726
x_opt: [0.0, 1.0, 1.0, 1.0, 1.0, 0.0, 0.0, 0.0, 0.2684420927725156, 1.0, 0.0, 0.26884082668888, 1.0, 0.9154003596645904, 1.0, 0.0, 0.0, 0.0, 0.0, 0.5430885792994599]
GUROBI solution time: 0.7647440433502197




